!- Darwin Line endings 

VERSION,
    25.1;                     !- Version Identifier

SIMULATIONCONTROL,
    Yes,                      !- Do Zone Sizing Calculation
    Yes,                      !- Do System Sizing Calculation
    No,                       !- Do Plant Sizing Calculation
    Yes,                      !- Run Simulation for Sizing Periods
    No,                       !- Run Simulation for Weather File Run Periods
    No,                       !- Do HVAC Sizing Simulation for Sizing Periods
    1;                        !- Maximum Number of HVAC Sizing Simulation Passes

BUILDING,
    ATL01_DataCenter,         !- Name
    0,                        !- North Axis
    City,                     !- Terrain
    0.05,                     !- Loads Convergence Tolerance Value
    0.05,                     !- Temperature Convergence Tolerance Value
    MinimalShadowing,         !- Solar Distribution
    30,                       !- Maximum Number of Warmup Days
    6;                        !- Minimum Number of Warmup Days

SURFACECONVECTIONALGORITHM:INSIDE,
    TARP;                     !- Algorithm

SURFACECONVECTIONALGORITHM:OUTSIDE,
    DOE-2;                    !- Algorithm

HEATBALANCEALGORITHM,
    ConductionTransferFunction,    !- Algorithm
    200,                      !- Surface Temperature Upper Limit
    0.1,                      !- Minimum Surface Convection Heat Transfer Coefficient Value
    1000;                     !- Maximum Surface Convection Heat Transfer Coefficient Value

TIMESTEP,
    4;                        !- Number of Timesteps per Hour

SITE:LOCATION,
    Atlanta_Hartsfield_Intl_AP_GA_USA,    !- Name
    33.64,                    !- Latitude
    -84.43,                   !- Longitude
    -5,                       !- Time Zone
    308,                      !- Elevation
    No;                       !- Keep Site Location Information

SIZINGPERIOD:DESIGNDAY,
    Atlanta_Summer_Design_Day,    !- Name
    7,                        !- Month
    21,                       !- Day of Month
    SummerDesignDay,          !- Day Type
    33.3,                     !- Maximum DryBulb Temperature
    10,                       !- Daily DryBulb Temperature Range
    DefaultMultipliers,       !- DryBulb Temperature Range Modifier Type
    ,                         !- DryBulb Temperature Range Modifier Day Schedule Name
    WetBulb,                  !- Humidity Condition Type
    23.9,                     !- Wetbulb or DewPoint at Maximum DryBulb
    ,                         !- Humidity Condition Day Schedule Name
    ,                         !- Humidity Ratio at Maximum DryBulb
    ,                         !- Enthalpy at Maximum DryBulb
    ,                         !- Daily WetBulb Temperature Range
    98934,                    !- Barometric Pressure
    3.8,                      !- Wind Speed
    310,                      !- Wind Direction
    No,                       !- Rain Indicator
    No,                       !- Snow Indicator
    No,                       !- Daylight Saving Time Indicator
    ASHRAEClearSky,           !- Solar Model Indicator
    ,                         !- Beam Solar Day Schedule Name
    ,                         !- Diffuse Solar Day Schedule Name
    0,                        !- ASHRAE Clear Sky Optical Depth for Beam Irradiance taub
    0,                        !- ASHRAE Clear Sky Optical Depth for Diffuse Irradiance taud
    1,                        !- Sky Clearness
    ,                         !- Maximum Number Warmup Days
    FullResetAtBeginEnvironment;    !- Begin Environment Reset Mode

RUNPERIOD,
    SingleDay,                !- Name
    7,                        !- Begin Month
    21,                       !- Begin Day of Month
    ,                         !- Begin Year
    7,                        !- End Month
    21,                       !- End Day of Month
    ,                         !- End Year
    Monday,                   !- Day of Week for Start Day
    No,                       !- Use Weather File Holidays and Special Days
    No,                       !- Use Weather File Daylight Saving Period
    No,                       !- Apply Weekend Holiday Rule
    Yes,                      !- Use Weather File Rain Indicators
    Yes,                      !- Use Weather File Snow Indicators
    No,                       !- Treat Weather as Actual
    Hour24;                   !- First Hour Interpolation Starting Values

SCHEDULETYPELIMITS,
    Fraction,                 !- Name
    0,                        !- Lower Limit Value
    1,                        !- Upper Limit Value
    Continuous,               !- Numeric Type
    Dimensionless;            !- Unit Type

SCHEDULETYPELIMITS,
    Any Number,               !- Name
    ,                         !- Lower Limit Value
    ,                         !- Upper Limit Value
    ,                         !- Numeric Type
    Dimensionless;            !- Unit Type

SCHEDULETYPELIMITS,
    Temperature,              !- Name
    -100,                     !- Lower Limit Value
    200,                      !- Upper Limit Value
    Continuous,               !- Numeric Type
    Temperature;              !- Unit Type

SCHEDULE:COMPACT,
    High_Density_Upgrade_Operation,    !- Name
    Fraction,                 !- Schedule Type Limits Name
    Through: 12/31,           !- Field 1
    For: AllDays,             !- Field 2
    Until: 24:00,             !- Field 3
    1;                        !- Field 4

SCHEDULE:COMPACT,
    High_Density_Upgrade_CPU,    !- Name
    Fraction,                 !- Schedule Type Limits Name
    Through: 12/31,           !- Field 1
    For: AllDays,             !- Field 2
    Until: 24:00,             !- Field 3
    1;                        !- Field 4

SCHEDULE:COMPACT,
    High_Density_Upgrade_System_Avail,    !- Name
    Fraction,                 !- Schedule Type Limits Name
    Through: 12/31,           !- Field 1
    For: AllDays,             !- Field 2
    Until: 24:00,             !- Field 3
    1;                        !- Field 4

SCHEDULE:COMPACT,
    High_Density_Upgrade_Control_Type,    !- Name
    Any Number,               !- Schedule Type Limits Name
    Through: 12/31,           !- Field 1
    For: AllDays,             !- Field 2
    Until: 24:00,             !- Field 3
    4;                        !- Field 4

SCHEDULE:COMPACT,
    High_Density_Upgrade_Heating_Setpoint,    !- Name
    Temperature,              !- Schedule Type Limits Name
    Through: 12/31,           !- Field 1
    For: AllDays,             !- Field 2
    Until: 24:00,             !- Field 3
    15;                       !- Field 4

SCHEDULE:COMPACT,
    High_Density_Upgrade_Cooling_Setpoint,    !- Name
    Temperature,              !- Schedule Type Limits Name
    Through: 12/31,           !- Field 1
    For: AllDays,             !- Field 2
    Until: 24:00,             !- Field 3
    30;                       !- Field 4

MATERIAL,
    Adiabatic_Material,       !- Name
    Smooth,                   !- Roughness
    0.1,                      !- Thickness
    0.001,                    !- Conductivity
    1,                        !- Density
    1000,                     !- Specific Heat
    0.9,                      !- Thermal Absorptance
    0.7,                      !- Solar Absorptance
    0.7;                      !- Visible Absorptance

CONSTRUCTION,
    Adiabatic_Construction,    !- Name
    Adiabatic_Material;       !- Outside Layer

GLOBALGEOMETRYRULES,
    UpperLeftCorner,          !- Starting Vertex Position
    CounterClockWise,         !- Vertex Entry Direction
    Relative,                 !- Coordinate System
    Relative,                 !- Daylighting Reference Point Coordinate System
    Relative;                 !- Rectangular Surface Coordinate System

ZONE,
    High_Density_Upgrade_Zone,    !- Name
    0,                        !- Direction of Relative North
    0,                        !- X Origin
    0,                        !- Y Origin
    0,                        !- Z Origin
    1,                        !- Type
    1,                        !- Multiplier
    3,                        !- Ceiling Height
    450,                      !- Volume
    autocalculate,            !- Floor Area
    ,                         !- Zone Inside Convection Algorithm
    ,                         !- Zone Outside Convection Algorithm
    Yes;                      !- Part of Total Floor Area

BUILDINGSURFACE:DETAILED,
    High_Density_Upgrade_Floor,    !- Name
    Floor,                    !- Surface Type
    Adiabatic_Construction,    !- Construction Name
    High_Density_Upgrade_Zone,    !- Zone Name
    ,                         !- Space Name
    Adiabatic,                !- Outside Boundary Condition
    ,                         !- Outside Boundary Condition Object
    NoSun,                    !- Sun Exposure
    NoWind,                   !- Wind Exposure
    0,                        !- View Factor to Ground
    4,                        !- Number of Vertices
    0,                        !- Vertex 1 Xcoordinate
    10,                       !- Vertex 1 Ycoordinate
    0,                        !- Vertex 1 Zcoordinate
    15,                       !- Vertex 2 Xcoordinate
    10,                       !- Vertex 2 Ycoordinate
    0,                        !- Vertex 2 Zcoordinate
    15,                       !- Vertex 3 Xcoordinate
    0,                        !- Vertex 3 Ycoordinate
    0,                        !- Vertex 3 Zcoordinate
    0,                        !- Vertex 4 Xcoordinate
    0,                        !- Vertex 4 Ycoordinate
    0;                        !- Vertex 4 Zcoordinate

BUILDINGSURFACE:DETAILED,
    High_Density_Upgrade_Ceiling,    !- Name
    Ceiling,                  !- Surface Type
    Adiabatic_Construction,    !- Construction Name
    High_Density_Upgrade_Zone,    !- Zone Name
    ,                         !- Space Name
    Adiabatic,                !- Outside Boundary Condition
    ,                         !- Outside Boundary Condition Object
    NoSun,                    !- Sun Exposure
    NoWind,                   !- Wind Exposure
    0,                        !- View Factor to Ground
    4,                        !- Number of Vertices
    0,                        !- Vertex 1 Xcoordinate
    0,                        !- Vertex 1 Ycoordinate
    3,                        !- Vertex 1 Zcoordinate
    15,                       !- Vertex 2 Xcoordinate
    0,                        !- Vertex 2 Ycoordinate
    3,                        !- Vertex 2 Zcoordinate
    15,                       !- Vertex 3 Xcoordinate
    10,                       !- Vertex 3 Ycoordinate
    3,                        !- Vertex 3 Zcoordinate
    0,                        !- Vertex 4 Xcoordinate
    10,                       !- Vertex 4 Ycoordinate
    3;                        !- Vertex 4 Zcoordinate

BUILDINGSURFACE:DETAILED,
    High_Density_Upgrade_Wall_North,    !- Name
    Wall,                     !- Surface Type
    Adiabatic_Construction,    !- Construction Name
    High_Density_Upgrade_Zone,    !- Zone Name
    ,                         !- Space Name
    Adiabatic,                !- Outside Boundary Condition
    ,                         !- Outside Boundary Condition Object
    NoSun,                    !- Sun Exposure
    NoWind,                   !- Wind Exposure
    0,                        !- View Factor to Ground
    4,                        !- Number of Vertices
    0,                        !- Vertex 1 Xcoordinate
    10,                       !- Vertex 1 Ycoordinate
    0,                        !- Vertex 1 Zcoordinate
    0,                        !- Vertex 2 Xcoordinate
    10,                       !- Vertex 2 Ycoordinate
    3,                        !- Vertex 2 Zcoordinate
    15,                       !- Vertex 3 Xcoordinate
    10,                       !- Vertex 3 Ycoordinate
    3,                        !- Vertex 3 Zcoordinate
    15,                       !- Vertex 4 Xcoordinate
    10,                       !- Vertex 4 Ycoordinate
    0;                        !- Vertex 4 Zcoordinate

BUILDINGSURFACE:DETAILED,
    High_Density_Upgrade_Wall_East,    !- Name
    Wall,                     !- Surface Type
    Adiabatic_Construction,    !- Construction Name
    High_Density_Upgrade_Zone,    !- Zone Name
    ,                         !- Space Name
    Adiabatic,                !- Outside Boundary Condition
    ,                         !- Outside Boundary Condition Object
    NoSun,                    !- Sun Exposure
    NoWind,                   !- Wind Exposure
    0,                        !- View Factor to Ground
    4,                        !- Number of Vertices
    15,                       !- Vertex 1 Xcoordinate
    10,                       !- Vertex 1 Ycoordinate
    0,                        !- Vertex 1 Zcoordinate
    15,                       !- Vertex 2 Xcoordinate
    10,                       !- Vertex 2 Ycoordinate
    3,                        !- Vertex 2 Zcoordinate
    15,                       !- Vertex 3 Xcoordinate
    0,                        !- Vertex 3 Ycoordinate
    3,                        !- Vertex 3 Zcoordinate
    15,                       !- Vertex 4 Xcoordinate
    0,                        !- Vertex 4 Ycoordinate
    0;                        !- Vertex 4 Zcoordinate

BUILDINGSURFACE:DETAILED,
    High_Density_Upgrade_Wall_South,    !- Name
    Wall,                     !- Surface Type
    Adiabatic_Construction,    !- Construction Name
    High_Density_Upgrade_Zone,    !- Zone Name
    ,                         !- Space Name
    Adiabatic,                !- Outside Boundary Condition
    ,                         !- Outside Boundary Condition Object
    NoSun,                    !- Sun Exposure
    NoWind,                   !- Wind Exposure
    0,                        !- View Factor to Ground
    4,                        !- Number of Vertices
    15,                       !- Vertex 1 Xcoordinate
    0,                        !- Vertex 1 Ycoordinate
    0,                        !- Vertex 1 Zcoordinate
    15,                       !- Vertex 2 Xcoordinate
    0,                        !- Vertex 2 Ycoordinate
    3,                        !- Vertex 2 Zcoordinate
    0,                        !- Vertex 3 Xcoordinate
    0,                        !- Vertex 3 Ycoordinate
    3,                        !- Vertex 3 Zcoordinate
    0,                        !- Vertex 4 Xcoordinate
    0,                        !- Vertex 4 Ycoordinate
    0;                        !- Vertex 4 Zcoordinate

BUILDINGSURFACE:DETAILED,
    High_Density_Upgrade_Wall_West,    !- Name
    Wall,                     !- Surface Type
    Adiabatic_Construction,    !- Construction Name
    High_Density_Upgrade_Zone,    !- Zone Name
    ,                         !- Space Name
    Adiabatic,                !- Outside Boundary Condition
    ,                         !- Outside Boundary Condition Object
    NoSun,                    !- Sun Exposure
    NoWind,                   !- Wind Exposure
    0,                        !- View Factor to Ground
    4,                        !- Number of Vertices
    0,                        !- Vertex 1 Xcoordinate
    0,                        !- Vertex 1 Ycoordinate
    0,                        !- Vertex 1 Zcoordinate
    0,                        !- Vertex 2 Xcoordinate
    0,                        !- Vertex 2 Ycoordinate
    3,                        !- Vertex 2 Zcoordinate
    0,                        !- Vertex 3 Xcoordinate
    10,                       !- Vertex 3 Ycoordinate
    3,                        !- Vertex 3 Zcoordinate
    0,                        !- Vertex 4 Xcoordinate
    10,                       !- Vertex 4 Ycoordinate
    0;                        !- Vertex 4 Zcoordinate

ELECTRICEQUIPMENT:ITE:AIRCOOLED,
    High_Density_Upgrade_Servers,    !- Name
    High_Density_Upgrade_Zone,    !- Zone or Space Name
    FlowFromSystem,           !- Air Flow Calculation Method
    Watts/Unit,               !- Design Power Input Calculation Method
    1400.0000000000011,       !- Watts per Unit
    100,                      !- Number of Units
    ,                         !- Watts per Floor Area
    High_Density_Upgrade_Operation,    !- Design Power Input Schedule Name
    High_Density_Upgrade_CPU,    !- CPU Loading Schedule Name
    High_Density_Upgrade_Power_fLoadTemp,    !- CPU Power Input Function of Loading and Air Temperature Curve Name
    0.4,                      !- Design Fan Power Input Fraction
    0.0001,                   !- Design Fan Air Flow Rate per Power Input
    High_Density_Upgrade_Airflow_fLoadTemp,    !- Air Flow Function of Loading and Air Temperature Curve Name
    High_Density_Upgrade_FanPower_fFlow,    !- Fan Power Input Function of Flow Curve Name
    15,                       !- Design Entering Air Temperature
    A3,                       !- Environmental Class
    AdjustedSupply,           !- Air Inlet Connection Type
    ,                         !- Air Inlet Room Air Model Node Name
    ,                         !- Air Outlet Room Air Model Node Name
    High_Density_Upgrade_Zone_Inlet_Node,    !- Supply Air Node Name
    0.1,                      !- Design Recirculation Fraction
    High_Density_Upgrade_Recirc_fLoadTemp,    !- Recirculation Function of Loading and Supply Temperature Curve Name
    0.9,                      !- Design Electric Power Supply Efficiency
    High_Density_Upgrade_UPS_fPLR,    !- Electric Power Supply Efficiency Function of Part Load Ratio Curve Name
    1,                        !- Fraction of Electric Power Supply Losses to Zone
    ITE-CPU,                  !- CPU EndUse Subcategory
    ITE-Fans,                 !- Fan EndUse Subcategory
    ITE-UPS;                  !- Electric Power Supply EndUse Subcategory

SIZING:ZONE,
    High_Density_Upgrade_Zone,    !- Zone or ZoneList Name
    SupplyAirTemperature,     !- Zone Cooling Design Supply Air Temperature Input Method
    13,                       !- Zone Cooling Design Supply Air Temperature
    ,                         !- Zone Cooling Design Supply Air Temperature Difference
    SupplyAirTemperature,     !- Zone Heating Design Supply Air Temperature Input Method
    50,                       !- Zone Heating Design Supply Air Temperature
    ,                         !- Zone Heating Design Supply Air Temperature Difference
    0.0077,                   !- Zone Cooling Design Supply Air Humidity Ratio
    0.0156,                   !- Zone Heating Design Supply Air Humidity Ratio
    ,                         !- Design Specification Outdoor Air Object Name
    ,                         !- Zone Heating Sizing Factor
    ,                         !- Zone Cooling Sizing Factor
    DesignDay,                !- Cooling Design Air Flow Method
    0,                        !- Cooling Design Air Flow Rate
    0.000762,                 !- Cooling Minimum Air Flow per Zone Floor Area
    0,                        !- Cooling Minimum Air Flow
    0.2,                      !- Cooling Minimum Air Flow Fraction
    DesignDay,                !- Heating Design Air Flow Method
    0,                        !- Heating Design Air Flow Rate
    0.002032,                 !- Heating Maximum Air Flow per Zone Floor Area
    0.1415762,                !- Heating Maximum Air Flow
    0.3,                      !- Heating Maximum Air Flow Fraction
    ,                         !- Design Specification Zone Air Distribution Object Name
    No,                       !- Account for Dedicated Outdoor Air System
    NeutralSupplyAir,         !- Dedicated Outdoor Air System Control Strategy
    autosize,                 !- Dedicated Outdoor Air Low Setpoint Temperature for Design
    autosize,                 !- Dedicated Outdoor Air High Setpoint Temperature for Design
    Sensible Load Only No Latent Load,    !- Zone Load Sizing Method
    HumidityRatioDifference,    !- Zone Latent Cooling Design Supply Air Humidity Ratio Input Method
    ,                         !- Zone Dehumidification Design Supply Air Humidity Ratio
    0.005,                    !- Zone Cooling Design Supply Air Humidity Ratio Difference
    HumidityRatioDifference,    !- Zone Latent Heating Design Supply Air Humidity Ratio Input Method
    ,                         !- Zone Humidification Design Supply Air Humidity Ratio
    0.005,                    !- Zone Humidification Design Supply Air Humidity Ratio Difference
    ,                         !- Zone Humidistat Dehumidification Set Point Schedule Name
    ,                         !- Zone Humidistat Humidification Set Point Schedule Name
    Coincident;               !- Type of Space Sum to Use

ZONECONTROL:THERMOSTAT,
    High_Density_Upgrade_Zone_Thermostat,    !- Name
    High_Density_Upgrade_Zone,    !- Zone or ZoneList Name
    High_Density_Upgrade_Control_Type,    !- Control Type Schedule Name
    ThermostatSetpoint:DualSetpoint,    !- Control 1 Object Type
    High_Density_Upgrade_DualSetpoint,    !- Control 1 Name
    ,                         !- Control 2 Object Type
    ,                         !- Control 2 Name
    ,                         !- Control 3 Object Type
    ,                         !- Control 3 Name
    ,                         !- Control 4 Object Type
    ,                         !- Control 4 Name
    0;                        !- Temperature Difference Between Cutout And Setpoint

THERMOSTATSETPOINT:DUALSETPOINT,
    High_Density_Upgrade_DualSetpoint,    !- Name
    High_Density_Upgrade_Heating_Setpoint,    !- Heating Setpoint Temperature Schedule Name
    High_Density_Upgrade_Cooling_Setpoint;    !- Cooling Setpoint Temperature Schedule Name

ZONEHVAC:PACKAGEDTERMINALAIRCONDITIONER,
    High_Density_Upgrade_PTAC,    !- Name
    High_Density_Upgrade_System_Avail,    !- Availability Schedule Name
    High_Density_Upgrade_Zone_Return_Outlet,    !- Air Inlet Node Name
    High_Density_Upgrade_Zone_Inlet_Node,    !- Air Outlet Node Name
    ,                         !- Outdoor Air Mixer Object Type
    ,                         !- Outdoor Air Mixer Name
    219.455355,               !- Cooling Supply Air Flow Rate
    219.455355,               !- Heating Supply Air Flow Rate
    219.455355,               !- No Load Supply Air Flow Rate
    Yes,                      !- No Load Supply Air Flow Rate Control Set To Low Speed
    0,                        !- Cooling Outdoor Air Flow Rate
    0,                        !- Heating Outdoor Air Flow Rate
    0,                        !- No Load Outdoor Air Flow Rate
    Fan:OnOff,                !- Supply Air Fan Object Type
    High_Density_Upgrade_Supply_Fan,    !- Supply Air Fan Name
    Coil:Heating:Electric,    !- Heating Coil Object Type
    High_Density_Upgrade_Heating_Coil,    !- Heating Coil Name
    Coil:Cooling:DX:SingleSpeed,    !- Cooling Coil Object Type
    High_Density_Upgrade_DX_Coil,    !- Cooling Coil Name
    DrawThrough,              !- Fan Placement
    ,                         !- Supply Air Fan Operating Mode Schedule Name
    ,                         !- Availability Manager List Name
    ,                         !- Design Specification ZoneHVAC Sizing Object Name
    None,                     !- Capacity Control Method
    autosize,                 !- Minimum Supply Air Temperature in Cooling Mode
    autosize;                 !- Maximum Supply Air Temperature in Heating Mode

ZONEHVAC:EQUIPMENTLIST,
    High_Density_Upgrade_Zone_Equipment,    !- Name
    SequentialLoad,           !- Load Distribution Scheme
    ZoneHVAC:PackagedTerminalAirConditioner,    !- Zone Equipment 1 Object Type
    High_Density_Upgrade_PTAC,    !- Zone Equipment 1 Name
    1,                        !- Zone Equipment 1 Cooling Sequence
    1;                        !- Zone Equipment 1 Heating or NoLoad Sequence

ZONEHVAC:EQUIPMENTCONNECTIONS,
    High_Density_Upgrade_Zone,    !- Zone Name
    High_Density_Upgrade_Zone_Equipment,    !- Zone Conditioning Equipment List Name
    High_Density_Upgrade_Zone_Inlet_Node,    !- Zone Air Inlet Node or NodeList Name
    High_Density_Upgrade_Zone_Return_Outlet,    !- Zone Air Exhaust Node or NodeList Name
    High_Density_Upgrade_Zone_Air_Node;    !- Zone Air Node Name

FAN:ONOFF,
    High_Density_Upgrade_Supply_Fan,    !- Name
    High_Density_Upgrade_System_Avail,    !- Availability Schedule Name
    0.7,                      !- Fan Total Efficiency
    600,                      !- Pressure Rise
    219.455355,               !- Maximum Flow Rate
    0.9,                      !- Motor Efficiency
    1,                        !- Motor In Airstream Fraction
    High_Density_Upgrade_Heating_Coil_Outlet,    !- Air Inlet Node Name
    High_Density_Upgrade_Zone_Inlet_Node,    !- Air Outlet Node Name
    ,                         !- Fan Power Ratio Function of Speed Ratio Curve Name
    ,                         !- Fan Efficiency Ratio Function of Speed Ratio Curve Name
    General;                  !- EndUse Subcategory

COIL:COOLING:DX:SINGLESPEED,
    High_Density_Upgrade_DX_Coil,    !- Name
    High_Density_Upgrade_System_Avail,    !- Availability Schedule Name
    autosize,                 !- Gross Rated Total Cooling Capacity
    0.75,                     !- Gross Rated Sensible Heat Ratio
    3,                        !- Gross Rated Cooling COP
    219.455355,               !- Rated Air Flow Rate
    773.3,                    !- 2017 Rated Evaporator Fan Power Per Volume Flow Rate
    934.4,                    !- 2023 Rated Evaporator Fan Power Per Volume Flow Rate
    High_Density_Upgrade_Zone_Return_Outlet,    !- Air Inlet Node Name
    High_Density_Upgrade_Cooling_Coil_Outlet,    !- Air Outlet Node Name
    High_Density_Upgrade_CoolCapFT,    !- Total Cooling Capacity Function of Temperature Curve Name
    High_Density_Upgrade_CoolCapFFF,    !- Total Cooling Capacity Function of Flow Fraction Curve Name
    High_Density_Upgrade_EIRFT,    !- Energy Input Ratio Function of Temperature Curve Name
    High_Density_Upgrade_EIRFFF,    !- Energy Input Ratio Function of Flow Fraction Curve Name
    High_Density_Upgrade_PLFFPLR,    !- Part Load Fraction Correlation Curve Name
    -25,                      !- Minimum Outdoor DryBulb Temperature for Compressor Operation
    0,                        !- Nominal Time for Condensate Removal to Begin
    0,                        !- Ratio of Initial Moisture Evaporation Rate and Steady State Latent Capacity
    0,                        !- Maximum Cycling Rate
    0,                        !- Latent Capacity Time Constant
    ,                         !- Condenser Air Inlet Node Name
    AirCooled,                !- Condenser Type
    0.9,                      !- Evaporative Condenser Effectiveness
    ,                         !- Evaporative Condenser Air Flow Rate
    0,                        !- Evaporative Condenser Pump Rated Power Consumption
    0,                        !- Crankcase Heater Capacity
    ,                         !- Crankcase Heater Capacity Function of Temperature Curve Name
    10,                       !- Maximum Outdoor DryBulb Temperature for Crankcase Heater Operation
    ,                         !- Supply Water Storage Tank Name
    ,                         !- Condensate Collection Water Storage Tank Name
    0,                        !- Basin Heater Capacity
    2,                        !- Basin Heater Setpoint Temperature
    ,                         !- Basin Heater Operating Schedule Name
    ,                         !- Sensible Heat Ratio Function of Temperature Curve Name
    ,                         !- Sensible Heat Ratio Function of Flow Fraction Curve Name
    No;                       !- Report ASHRAE Standard 127 Performance Ratings

COIL:HEATING:ELECTRIC,
    High_Density_Upgrade_Heating_Coil,    !- Name
    High_Density_Upgrade_System_Avail,    !- Availability Schedule Name
    1,                        !- Efficiency
    0,                        !- Nominal Capacity
    High_Density_Upgrade_Cooling_Coil_Outlet,    !- Air Inlet Node Name
    High_Density_Upgrade_Heating_Coil_Outlet;    !- Air Outlet Node Name

CURVE:QUADRATIC,
    High_Density_Upgrade_FanPower_fFlow,    !- Name
    0,                        !- Coefficient1 Constant
    1,                        !- Coefficient2 x
    0,                        !- Coefficient3 x2
    0,                        !- Minimum Value of x
    99,                       !- Maximum Value of x
    ,                         !- Minimum Curve Output
    ,                         !- Maximum Curve Output
    Dimensionless,            !- Input Unit Type for X
    Dimensionless;            !- Output Unit Type

CURVE:QUADRATIC,
    High_Density_Upgrade_UPS_fPLR,    !- Name
    1,                        !- Coefficient1 Constant
    0,                        !- Coefficient2 x
    0,                        !- Coefficient3 x2
    0,                        !- Minimum Value of x
    99,                       !- Maximum Value of x
    ,                         !- Minimum Curve Output
    ,                         !- Maximum Curve Output
    Dimensionless,            !- Input Unit Type for X
    Dimensionless;            !- Output Unit Type

CURVE:QUADRATIC,
    High_Density_Upgrade_Recirc_fLoadTemp,    !- Name
    1,                        !- Coefficient1 Constant
    0,                        !- Coefficient2 x
    0,                        !- Coefficient3 x2
    -10,                      !- Minimum Value of x
    99,                       !- Maximum Value of x
    ,                         !- Minimum Curve Output
    ,                         !- Maximum Curve Output
    Dimensionless,            !- Input Unit Type for X
    Dimensionless;            !- Output Unit Type

CURVE:QUADRATIC,
    High_Density_Upgrade_CoolCapFFF,    !- Name
    0.8,                      !- Coefficient1 Constant
    0.2,                      !- Coefficient2 x
    0,                        !- Coefficient3 x2
    0.5,                      !- Minimum Value of x
    1.5,                      !- Maximum Value of x
    ,                         !- Minimum Curve Output
    ,                         !- Maximum Curve Output
    Dimensionless,            !- Input Unit Type for X
    Dimensionless;            !- Output Unit Type

CURVE:QUADRATIC,
    High_Density_Upgrade_EIRFFF,    !- Name
    1.1552,                   !- Coefficient1 Constant
    -0.1808,                  !- Coefficient2 x
    0.0256,                   !- Coefficient3 x2
    0.5,                      !- Minimum Value of x
    1.5,                      !- Maximum Value of x
    ,                         !- Minimum Curve Output
    ,                         !- Maximum Curve Output
    Dimensionless,            !- Input Unit Type for X
    Dimensionless;            !- Output Unit Type

CURVE:QUADRATIC,
    High_Density_Upgrade_PLFFPLR,    !- Name
    0.85,                     !- Coefficient1 Constant
    0.15,                     !- Coefficient2 x
    0,                        !- Coefficient3 x2
    0,                        !- Minimum Value of x
    1,                        !- Maximum Value of x
    ,                         !- Minimum Curve Output
    ,                         !- Maximum Curve Output
    Dimensionless,            !- Input Unit Type for X
    Dimensionless;            !- Output Unit Type

CURVE:BIQUADRATIC,
    High_Density_Upgrade_Power_fLoadTemp,    !- Name
    -1,                       !- Coefficient1 Constant
    1,                        !- Coefficient2 x
    0,                        !- Coefficient3 x2
    0.06667,                  !- Coefficient4 y
    0,                        !- Coefficient5 y2
    0,                        !- Coefficient6 xy
    0,                        !- Minimum Value of x
    1.5,                      !- Maximum Value of x
    -10,                      !- Minimum Value of y
    99,                       !- Maximum Value of y
    ,                         !- Minimum Curve Output
    ,                         !- Maximum Curve Output
    Dimensionless,            !- Input Unit Type for X
    Dimensionless,            !- Input Unit Type for Y
    Dimensionless;            !- Output Unit Type

CURVE:BIQUADRATIC,
    High_Density_Upgrade_Airflow_fLoadTemp,    !- Name
    -1.4,                     !- Coefficient1 Constant
    0.9,                      !- Coefficient2 x
    0,                        !- Coefficient3 x2
    0.1,                      !- Coefficient4 y
    0,                        !- Coefficient5 y2
    0,                        !- Coefficient6 xy
    0,                        !- Minimum Value of x
    1.5,                      !- Maximum Value of x
    -10,                      !- Minimum Value of y
    99,                       !- Maximum Value of y
    ,                         !- Minimum Curve Output
    ,                         !- Maximum Curve Output
    Dimensionless,            !- Input Unit Type for X
    Dimensionless,            !- Input Unit Type for Y
    Dimensionless;            !- Output Unit Type

CURVE:BIQUADRATIC,
    High_Density_Upgrade_CoolCapFT,    !- Name
    0.942587793,              !- Coefficient1 Constant
    0.009543347,              !- Coefficient2 x
    0.00068377,               !- Coefficient3 x2
    -0.011042676,             !- Coefficient4 y
    5.249e-06,                !- Coefficient5 y2
    -9.72e-06,                !- Coefficient6 xy
    17,                       !- Minimum Value of x
    22,                       !- Maximum Value of x
    13,                       !- Minimum Value of y
    46,                       !- Maximum Value of y
    ,                         !- Minimum Curve Output
    ,                         !- Maximum Curve Output
    Dimensionless,            !- Input Unit Type for X
    Dimensionless,            !- Input Unit Type for Y
    Dimensionless;            !- Output Unit Type

CURVE:BIQUADRATIC,
    High_Density_Upgrade_EIRFT,    !- Name
    0.342414409,              !- Coefficient1 Constant
    0.034885008,              !- Coefficient2 x
    -0.0006237,               !- Coefficient3 x2
    0.004977216,              !- Coefficient4 y
    0.000437951,              !- Coefficient5 y2
    -0.000728028,             !- Coefficient6 xy
    17,                       !- Minimum Value of x
    22,                       !- Maximum Value of x
    13,                       !- Minimum Value of y
    46,                       !- Maximum Value of y
    ,                         !- Minimum Curve Output
    ,                         !- Maximum Curve Output
    Dimensionless,            !- Input Unit Type for X
    Dimensionless,            !- Input Unit Type for Y
    Dimensionless;            !- Output Unit Type

OUTPUT:VARIABLEDICTIONARY,
    IDF;                      !- Key Field

OUTPUT:TABLE:SUMMARYREPORTS,
    AllSummary;               !- Report 1 Name

OUTPUT:VARIABLE,
    *,                        !- Key Value
    Zone Mean Air Temperature,    !- Variable Name
    Timestep;                 !- Reporting Frequency

OUTPUT:VARIABLE,
    *,                        !- Key Value
    Zone Air System Sensible Cooling Rate,    !- Variable Name
    Timestep;                 !- Reporting Frequency

OUTPUT:VARIABLE,
    *,                        !- Key Value
    Zone Air System Sensible Heating Rate,    !- Variable Name
    Timestep;                 !- Reporting Frequency

OUTPUT:VARIABLE,
    *,                        !- Key Value
    Zone ITE CPU Electricity Rate,    !- Variable Name
    Timestep;                 !- Reporting Frequency

OUTPUT:VARIABLE,
    *,                        !- Key Value
    Zone ITE Fan Electricity Rate,    !- Variable Name
    Timestep;                 !- Reporting Frequency

OUTPUT:VARIABLE,
    *,                        !- Key Value
    Zone ITE UPS Electricity Rate,    !- Variable Name
    Timestep;                 !- Reporting Frequency

OUTPUT:VARIABLE,
    *,                        !- Key Value
    Zone ITE Total Heat Gain to Zone Rate,    !- Variable Name
    Timestep;                 !- Reporting Frequency

OUTPUT:VARIABLE,
    *,                        !- Key Value
    Cooling Coil Total Cooling Rate,    !- Variable Name
    Timestep;                 !- Reporting Frequency

OUTPUT:VARIABLE,
    *,                        !- Key Value
    Fan Electricity Rate,     !- Variable Name
    Timestep;                 !- Reporting Frequency

OUTPUT:VARIABLE,
    *,                        !- Key Value
    System Node Temperature,    !- Variable Name
    Timestep;                 !- Reporting Frequency

OUTPUT:VARIABLE,
    *,                        !- Key Value
    System Node Mass Flow Rate,    !- Variable Name
    Timestep;                 !- Reporting Frequency