!- Darwin Line endings

VERSION,
    25.1;                     !- Version Identifier

SIMULATIONCONTROL,
    Yes,                      !- Do Zone Sizing Calculation
    Yes,                      !- Do System Sizing Calculation
    Yes,                      !- Do Plant Sizing Calculation
    Yes,                      !- Run Simulation for Sizing Periods
    No,                       !- Run Simulation for Weather File Run Periods
    No,                       !- Do HVAC Sizing Simulation for Sizing Periods
    1;                        !- Maximum Number of HVAC Sizing Simulation Passes

BUILDING,
    ATL01_DataCenter,         !- Name
    0,                        !- North Axis
    City,                     !- Terrain
    0.04,                     !- Loads Convergence Tolerance Value
    0.4,                      !- Temperature Convergence Tolerance Value
    FullExterior,             !- Solar Distribution
    25,                       !- Maximum Number of Warmup Days
    1;                        !- Minimum Number of Warmup Days

TIMESTEP,
    4;                        !- Number of Timesteps per Hour

SITE:LOCATION,
    Atlanta_Hartsfield_Intl_AP_GA_USA,    !- Name
    33.64,                    !- Latitude
    -84.43,                   !- Longitude
    -5,                       !- Time Zone
    308,                      !- Elevation
    No;                       !- Keep Site Location Information

SIZINGPERIOD:DESIGNDAY,
    Atlanta_Summer_Design_Day,    !- Name
    7,                        !- Month
    21,                       !- Day of Month
    SummerDesignDay,          !- Day Type
    33.3,                     !- Maximum DryBulb Temperature
    10,                       !- Daily DryBulb Temperature Range
    DefaultMultipliers,       !- DryBulb Temperature Range Modifier Type
    ,                         !- DryBulb Temperature Range Modifier Day Schedule Name
    WetBulb,                  !- Humidity Condition Type
    23.9,                     !- Wetbulb or DewPoint at Maximum DryBulb
    ,                         !- Humidity Condition Day Schedule Name
    ,                         !- Humidity Ratio at Maximum DryBulb
    ,                         !- Enthalpy at Maximum DryBulb
    ,                         !- Daily WetBulb Temperature Range
    98934,                    !- Barometric Pressure
    3.8,                      !- Wind Speed
    310,                      !- Wind Direction
    No,                       !- Rain Indicator
    No,                       !- Snow Indicator
    No,                       !- Daylight Saving Time Indicator
    ASHRAEClearSky,           !- Solar Model Indicator
    ,                         !- Beam Solar Day Schedule Name
    ,                         !- Diffuse Solar Day Schedule Name
    0,                        !- ASHRAE Clear Sky Optical Depth for Beam Irradiance taub
    0,                        !- ASHRAE Clear Sky Optical Depth for Diffuse Irradiance taud
    1,                        !- Sky Clearness
    ,                         !- Maximum Number Warmup Days
    FullResetAtBeginEnvironment;    !- Begin Environment Reset Mode

RUNPERIOD,
    SingleDay,                !- Name
    7,                        !- Begin Month
    21,                       !- Begin Day of Month
    ,                         !- Begin Year
    7,                        !- End Month
    21,                       !- End Day of Month
    ,                         !- End Year
    Monday,                   !- Day of Week for Start Day
    No,                       !- Use Weather File Holidays and Special Days
    No,                       !- Use Weather File Daylight Saving Period
    No,                       !- Apply Weekend Holiday Rule
    Yes,                      !- Use Weather File Rain Indicators
    Yes,                      !- Use Weather File Snow Indicators
    No,                       !- Treat Weather as Actual
    Hour24;                   !- First Hour Interpolation Starting Values

SCHEDULETYPELIMITS,
    Fraction,                 !- Name
    0,                        !- Lower Limit Value
    1,                        !- Upper Limit Value
    Continuous,               !- Numeric Type
    Dimensionless;            !- Unit Type

SCHEDULETYPELIMITS,
    Temperature,              !- Name
    -100,                     !- Lower Limit Value
    200,                      !- Upper Limit Value
    Continuous,               !- Numeric Type
    Temperature;              !- Unit Type

SCHEDULE:COMPACT,
    Baseline_Validated_AlwaysOn,    !- Name
    Fraction,                 !- Schedule Type Limits Name
    Through: 12/31,           !- Field 1
    For: AllDays,             !- Field 2
    Until: 24:00,             !- Field 3
    1;                        !- Field 4

SCHEDULE:COMPACT,
    AlwaysOn,                 !- Name
    Fraction,                 !- Schedule Type Limits Name
    Through: 12/31,           !- Field 1
    For: AllDays,             !- Field 2
    Until: 24:00,             !- Field 3
    1;                        !- Field 4

SCHEDULE:COMPACT,
    HeatingSetpoint,          !- Name
    Temperature,              !- Schedule Type Limits Name
    Through: 12/31,           !- Field 1
    For: AllDays,             !- Field 2
    Until: 24:00,             !- Field 3
    18;                       !- Field 4

SCHEDULE:COMPACT,
    CoolingSetpoint,          !- Name
    Temperature,              !- Schedule Type Limits Name
    Through: 12/31,           !- Field 1
    For: AllDays,             !- Field 2
    Until: 24:00,             !- Field 3
    24.4;                     !- Field 4

MATERIAL,
    Adiabatic_Material,       !- Name
    Smooth,                   !- Roughness
    0.1,                      !- Thickness
    0.001,                    !- Conductivity
    1,                        !- Density
    1000,                     !- Specific Heat
    0.9,                      !- Thermal Absorptance
    0.7,                      !- Solar Absorptance
    0.7;                      !- Visible Absorptance

CONSTRUCTION,
    Adiabatic_Construction,    !- Name
    Adiabatic_Material;       !- Outside Layer

GLOBALGEOMETRYRULES,
    UpperLeftCorner,          !- Starting Vertex Position
    Counterclockwise,         !- Vertex Entry Direction
    Relative,                 !- Coordinate System
    Relative,                 !- Daylighting Reference Point Coordinate System
    Relative;                 !- Rectangular Surface Coordinate System

ZONE,
    Baseline_Validated_Zone,    !- Name
    0,                        !- Direction of Relative North
    0,                        !- X Origin
    0,                        !- Y Origin
    0,                        !- Z Origin
    1,                        !- Type
    1,                        !- Multiplier
    3,                        !- Ceiling Height
    450,                      !- Volume
    autocalculate,            !- Floor Area
    ,                         !- Zone Inside Convection Algorithm
    ,                         !- Zone Outside Convection Algorithm
    Yes;                      !- Part of Total Floor Area

BUILDINGSURFACE:DETAILED,
    Baseline_Validated_Floor,    !- Name
    Floor,                    !- Surface Type
    Adiabatic_Construction,    !- Construction Name
    Baseline_Validated_Zone,    !- Zone Name
    ,                         !- Space Name
    Adiabatic,                !- Outside Boundary Condition
    ,                         !- Outside Boundary Condition Object
    NoSun,                    !- Sun Exposure
    NoWind,                   !- Wind Exposure
    0,                        !- View Factor to Ground
    4,                        !- Number of Vertices
    0,                        !- Vertex 1 Xcoordinate
    10,                       !- Vertex 1 Ycoordinate
    0,                        !- Vertex 1 Zcoordinate
    15,                       !- Vertex 2 Xcoordinate
    10,                       !- Vertex 2 Ycoordinate
    0,                        !- Vertex 2 Zcoordinate
    15,                       !- Vertex 3 Xcoordinate
    0,                        !- Vertex 3 Ycoordinate
    0,                        !- Vertex 3 Zcoordinate
    0,                        !- Vertex 4 Xcoordinate
    0,                        !- Vertex 4 Ycoordinate
    0;                        !- Vertex 4 Zcoordinate

BUILDINGSURFACE:DETAILED,
    Baseline_Validated_Ceiling,    !- Name
    Ceiling,                  !- Surface Type
    Adiabatic_Construction,    !- Construction Name
    Baseline_Validated_Zone,    !- Zone Name
    ,                         !- Space Name
    Adiabatic,                !- Outside Boundary Condition
    ,                         !- Outside Boundary Condition Object
    NoSun,                    !- Sun Exposure
    NoWind,                   !- Wind Exposure
    0,                        !- View Factor to Ground
    4,                        !- Number of Vertices
    0,                        !- Vertex 1 Xcoordinate
    0,                        !- Vertex 1 Ycoordinate
    3,                        !- Vertex 1 Zcoordinate
    15,                       !- Vertex 2 Xcoordinate
    0,                        !- Vertex 2 Ycoordinate
    3,                        !- Vertex 2 Zcoordinate
    15,                       !- Vertex 3 Xcoordinate
    10,                       !- Vertex 3 Ycoordinate
    3,                        !- Vertex 3 Zcoordinate
    0,                        !- Vertex 4 Xcoordinate
    10,                       !- Vertex 4 Ycoordinate
    3;                        !- Vertex 4 Zcoordinate

BUILDINGSURFACE:DETAILED,
    Baseline_Validated_Wall_North,    !- Name
    Wall,                     !- Surface Type
    Adiabatic_Construction,    !- Construction Name
    Baseline_Validated_Zone,    !- Zone Name
    ,                         !- Space Name
    Adiabatic,                !- Outside Boundary Condition
    ,                         !- Outside Boundary Condition Object
    NoSun,                    !- Sun Exposure
    NoWind,                   !- Wind Exposure
    0,                        !- View Factor to Ground
    4,                        !- Number of Vertices
    0,                        !- Vertex 1 Xcoordinate
    10,                       !- Vertex 1 Ycoordinate
    0,                        !- Vertex 1 Zcoordinate
    0,                        !- Vertex 2 Xcoordinate
    10,                       !- Vertex 2 Ycoordinate
    3,                        !- Vertex 2 Zcoordinate
    15,                       !- Vertex 3 Xcoordinate
    10,                       !- Vertex 3 Ycoordinate
    3,                        !- Vertex 3 Zcoordinate
    15,                       !- Vertex 4 Xcoordinate
    10,                       !- Vertex 4 Ycoordinate
    0;                        !- Vertex 4 Zcoordinate

BUILDINGSURFACE:DETAILED,
    Baseline_Validated_Wall_East,    !- Name
    Wall,                     !- Surface Type
    Adiabatic_Construction,    !- Construction Name
    Baseline_Validated_Zone,    !- Zone Name
    ,                         !- Space Name
    Adiabatic,                !- Outside Boundary Condition
    ,                         !- Outside Boundary Condition Object
    NoSun,                    !- Sun Exposure
    NoWind,                   !- Wind Exposure
    0,                        !- View Factor to Ground
    4,                        !- Number of Vertices
    15,                       !- Vertex 1 Xcoordinate
    10,                       !- Vertex 1 Ycoordinate
    0,                        !- Vertex 1 Zcoordinate
    15,                       !- Vertex 2 Xcoordinate
    10,                       !- Vertex 2 Ycoordinate
    3,                        !- Vertex 2 Zcoordinate
    15,                       !- Vertex 3 Xcoordinate
    0,                        !- Vertex 3 Ycoordinate
    3,                        !- Vertex 3 Zcoordinate
    15,                       !- Vertex 4 Xcoordinate
    0,                        !- Vertex 4 Ycoordinate
    0;                        !- Vertex 4 Zcoordinate

BUILDINGSURFACE:DETAILED,
    Baseline_Validated_Wall_South,    !- Name
    Wall,                     !- Surface Type
    Adiabatic_Construction,    !- Construction Name
    Baseline_Validated_Zone,    !- Zone Name
    ,                         !- Space Name
    Adiabatic,                !- Outside Boundary Condition
    ,                         !- Outside Boundary Condition Object
    NoSun,                    !- Sun Exposure
    NoWind,                   !- Wind Exposure
    0,                        !- View Factor to Ground
    4,                        !- Number of Vertices
    15,                       !- Vertex 1 Xcoordinate
    0,                        !- Vertex 1 Ycoordinate
    0,                        !- Vertex 1 Zcoordinate
    15,                       !- Vertex 2 Xcoordinate
    0,                        !- Vertex 2 Ycoordinate
    3,                        !- Vertex 2 Zcoordinate
    0,                        !- Vertex 3 Xcoordinate
    0,                        !- Vertex 3 Ycoordinate
    3,                        !- Vertex 3 Zcoordinate
    0,                        !- Vertex 4 Xcoordinate
    0,                        !- Vertex 4 Ycoordinate
    0;                        !- Vertex 4 Zcoordinate

BUILDINGSURFACE:DETAILED,
    Baseline_Validated_Wall_West,    !- Name
    Wall,                     !- Surface Type
    Adiabatic_Construction,    !- Construction Name
    Baseline_Validated_Zone,    !- Zone Name
    ,                         !- Space Name
    Adiabatic,                !- Outside Boundary Condition
    ,                         !- Outside Boundary Condition Object
    NoSun,                    !- Sun Exposure
    NoWind,                   !- Wind Exposure
    0,                        !- View Factor to Ground
    4,                        !- Number of Vertices
    0,                        !- Vertex 1 Xcoordinate
    0,                        !- Vertex 1 Ycoordinate
    0,                        !- Vertex 1 Zcoordinate
    0,                        !- Vertex 2 Xcoordinate
    0,                        !- Vertex 2 Ycoordinate
    3,                        !- Vertex 2 Zcoordinate
    0,                        !- Vertex 3 Xcoordinate
    10,                       !- Vertex 3 Ycoordinate
    3,                        !- Vertex 3 Zcoordinate
    0,                        !- Vertex 4 Xcoordinate
    10,                       !- Vertex 4 Ycoordinate
    0;                        !- Vertex 4 Zcoordinate

ELECTRICEQUIPMENT,
    Baseline_Validated_ServerRacks,    !- Name
    Baseline_Validated_Zone,    !- Zone or ZoneList or Space or SpaceList Name
    Baseline_Validated_AlwaysOn,    !- Schedule Name
    EquipmentLevel,           !- Design Level Calculation Method
    2400000,                  !- Design Level
    ,                         !- Watts per Floor Area
    ,                         !- Watts per Person
    0,                        !- Fraction Latent
    2.400000e-02,             !- Fraction Radiant
    0.92,                     !- Fraction Lost
    General;                  !- EndUse Subcategory
! 
! HVACTEMPLATE:THERMOSTAT,
!     Baseline_Validated_Thermostat,    !- Name
!     HeatingSetpoint,          !- Heating Setpoint Schedule Name
!     18,                       !- Constant Heating Setpoint
!     CoolingSetpoint,          !- Cooling Setpoint Schedule Name
!     24.4;                     !- Constant Cooling Setpoint
! 
! HVACTEMPLATE:ZONE:IDEALLOADSAIRSYSTEM,
!     Baseline_Validated_Zone,    !- Zone Name
!     Baseline_Validated_Thermostat,    !- Template Thermostat Name
!     AlwaysOn,                 !- System Availability Schedule Name
!     50,                       !- Maximum Heating Supply Air Temperature
!     13,                       !- Minimum Cooling Supply Air Temperature
!     0.0156,                   !- Maximum Heating Supply Air Humidity Ratio
!     0.0077,                   !- Minimum Cooling Supply Air Humidity Ratio
!     NoLimit,                  !- Heating Limit
!     autosize,                 !- Maximum Heating Air Flow Rate
!     ,                         !- Maximum Sensible Heating Capacity
!     NoLimit,                  !- Cooling Limit
!     autosize,                 !- Maximum Cooling Air Flow Rate
!     ,                         !- Maximum Total Cooling Capacity
!     ,                         !- Heating Availability Schedule Name
!     ,                         !- Cooling Availability Schedule Name
!     None,                     !- Dehumidification Control Type
!     1,                        !- Cooling Sensible Heat Ratio
!     60,                       !- Dehumidification Setpoint
!     None,                     !- Humidification Control Type
!     30,                       !- Humidification Setpoint
!     None,                     !- Outdoor Air Method
!     0.00944,                  !- Outdoor Air Flow Rate per Person
!     0,                        !- Outdoor Air Flow Rate per Zone Floor Area
!     0,                        !- Outdoor Air Flow Rate per Zone
!     ,                         !- Design Specification Outdoor Air Object Name
!     None,                     !- Demand Controlled Ventilation Type
!     NoEconomizer,             !- Outdoor Air Economizer Type
!     None,                     !- Heat Recovery Type
!     0.7,                      !- Sensible Heat Recovery Effectiveness
!     0.65;                     !- Latent Heat Recovery Effectiveness

OUTPUT:VARIABLEDICTIONARY,
    IDF;                      !- Key Field

OUTPUT:TABLE:SUMMARYREPORTS,
    AllSummary;               !- Report 1 Name

OUTPUT:VARIABLE,
    *,                        !- Key Value
    Zone Mean Air Temperature,    !- Variable Name
    Timestep;                 !- Reporting Frequency

OUTPUT:VARIABLE,
    *,                        !- Key Value
    Zone Air System Sensible Cooling Rate,    !- Variable Name
    Timestep;                 !- Reporting Frequency

OUTPUT:VARIABLE,
    *,                        !- Key Value
    Zone Air System Sensible Heating Rate,    !- Variable Name
    Timestep;                 !- Reporting Frequency

OUTPUT:VARIABLE,
    *,                        !- Key Value
    Zone Electric Equipment Electricity Rate,    !- Variable Name
    Timestep;                 !- Reporting Frequency

OUTPUT:VARIABLE,
    *,                        !- Key Value
    Zone Electric Equipment Total Heating Rate,    !- Variable Name
    Timestep;                 !- Reporting Frequency

OUTPUT:VARIABLE,
    *,                        !- Key Value
    Zone Ideal Loads Zone Total Cooling Rate,    !- Variable Name
    Timestep;                 !- Reporting Frequency

OUTPUT:VARIABLE,
    *,                        !- Key Value
    Zone Ideal Loads Zone Total Heating Rate,    !- Variable Name
    Timestep;                 !- Reporting Frequency
! 
! -------------------------------------------------------------
! New objects created from ExpandObjects
! -------------------------------------------------------------
! 

ThermostatSetpoint:DualSetpoint,
  Baseline_Validated_Thermostat Dual SP Control,           !- Name
  HeatingSetpoint,                                         !- Heating Setpoint Temperature Schedule Name
  CoolingSetpoint;                                         !- Cooling Setpoint Temperature Schedule Name

ScheduleTypeLimits,
  HVACTemplate Any Number;                                 !- Name

Schedule:Compact,
  HVACTemplate-Always 4,                                   !- Name
  HVACTemplate Any Number,                                 !- Schedule Type Limits Name
  Through: 12/31,                                          !- Field 1
  For: AllDays,                                            !- Field 2
  Until: 24:00,                                            !- Field 3
  4;                                                       !- Field 4

ZoneControl:Thermostat,
  Baseline_Validated_Zone Thermostat,                      !- Name
  Baseline_Validated_Zone,                                 !- Zone or ZoneList Name
  HVACTemplate-Always 4,                                   !- Control Type Schedule Name
  ThermostatSetpoint:DualSetpoint,                         !- Control Object Type
  Baseline_Validated_Thermostat Dual SP Control;           !- Control Name

Sizing:Zone,
  Baseline_Validated_Zone,                                 !- Zone or ZoneList Name
  SupplyAirTemperature,                                    !- Zone Cooling Design Supply Air Temperature Input Method
  13,                                                      !- Zone Cooling Design Supply Air Temperature {C}
  ,                                                        !- Zone Cooling Design Supply Air Temperature Difference {delta C}
  SupplyAirTemperature,                                    !- Zone Heating Design Supply Air Temperature Input Method
  50,                                                      !- Zone Heating Design Supply Air Temperature {C}
  ,                                                        !- Zone Heating Design Supply Air Temperature Difference {delta C}
  0.0077,                                                  !- Zone Cooling Design Supply Air Humidity Ratio {kg-H20/kg-air}
  0.0156,                                                  !- Zone Heating Design Supply Air Humidity Ratio {kg-H2O/kg-air}
  ,                                                        !- Design Specification Outdoor Air Object Name
  ,                                                        !- Zone Heating Sizing Factor
  ,                                                        !- Zone Cooling Sizing Factor
  DesignDay,                                               !- Cooling Design Air Flow Method
  0,                                                       !- Cooling Design Air Flow Rate {m3/s}
  ,                                                        !- Cooling Minimum Air Flow per Zone Floor Area {m3/s-m2}
  ,                                                        !- Cooling Minimum Air Flow {m3/s}
  0,                                                       !- Cooling Minimum Air Flow Fraction {}
  DesignDay,                                               !- Heating Design Air Flow Method
  0,                                                       !- Heating Design Air Flow Rate {m3/s}
  ,                                                        !- Heating Maximum Air Flow per Zone Floor Area {m3/s-m2}
  ,                                                        !- Heating Maximum Air Flow {m3/s}
  0,                                                       !- Heating Maximum Air Flow Fraction {}
  ;                                                        !- Design Specification Zone Air Distribution Object Name

ZoneHVAC:EquipmentConnections,
  Baseline_Validated_Zone,                                 !- Zone Name
  Baseline_Validated_Zone Equipment,                       !- Zone Conditioning Equipment List Name
  Baseline_Validated_Zone Ideal Loads Supply Inlet,        !- Zone Air Inlet Node or NodeList Name
  ,                                                        !- Zone Air Exhaust Node or NodeList Name
  Baseline_Validated_Zone Zone Air Node,                   !- Zone Air Node Name
  Baseline_Validated_Zone Return Outlet;                   !- Zone Return Air Node Name

ZoneHVAC:EquipmentList,
  Baseline_Validated_Zone Equipment,                       !- Name
  SequentialLoad,                                          !- Load Distribution Scheme
  ZoneHVAC:IdealLoadsAirSystem,                            !- Zone Equipment Object Type
  Baseline_Validated_Zone Ideal Loads Air System,          !- Zone Equipment Name
  1,                                                       !- Zone Equipment Cooling Sequence
  1,                                                       !- Zone Equipment Heating or No-Load Sequence
  ,                                                        !- Zone Equipment Sequential Cooling Fraction Schedule Name
  ;                                                        !- Zone Equipment Sequential Heating Fraction Schedule Name

ZoneHVAC:IdealLoadsAirSystem,
  Baseline_Validated_Zone Ideal Loads Air System,          !- Name
  AlwaysOn,                                                !- Availability Schedule Name
  Baseline_Validated_Zone Ideal Loads Supply Inlet,        !- Zone Supply Air Node Name
  ,                                                        !- Zone Exhaust Air Node Name
  ,                                                        !- System Inlet Air Node Name
  50,                                                      !- Maximum Heating Supply Air Temperature [C]
  13,                                                      !- Minimum Cooling Supply Air Temperature [C]
  0.0156,                                                  !- Maximum Heating Supply Air Humidity Ratio [kg-H20/kg-air]
  0.0077,                                                  !- Minimum Cooling Supply Air Humidity Ratio [kg-H20/kg-air]
  NoLimit,                                                 !- Heating Limit
  autosize,                                                !- Maximum Heating Air Flow Rate {m3/s}
  ,                                                        !- Maximum Sensible Heating Capacity {m3/s}
  NoLimit,                                                 !- Cooling Limit
  autosize,                                                !- Maximum Cooling Air Flow Rate {m3/s}
  ,                                                        !- Maximum Total Cooling Capacity {m3/s}
  ,                                                        !- Heating Availability Schedule Name
  ,                                                        !- Cooling Availability Schedule Name
  None,                                                    !- Dehumidification Control Type
  1,                                                       !- Cooling Sensible Heat Ratio
  None,                                                    !- Humidification Control Type
  ,                                                        !- Design Specification Outdoor Air Object Name
  ,                                                        !- Outdoor Air Inlet Node Name
  None,                                                    !- Demand Controlled Ventilation Type
  NoEconomizer,                                            !- Outdoor Air Economizer Type
  None,                                                    !- Heat Recovery Type
  0.7,                                                     !- Sensible Heat Recovery Effectiveness
  0.65;                                                    !- Latent Heat Recovery Effectiveness
